RT is False
Default write of storage_offers_DA.csv just to have a file (but constraint should be inactive)
Reading model...
...model read.
creating competitive generators file...
...competitive generators recorded.
Loading data...
.. day-ahead data with real-time VRE data read.
Compiling instance...
...instance created.
Creating Offer Mitigation (model will solve as dispatch if TRUE)...
NOTE: storage offers will not be mitigated
...storage offer mitigation file created
Converting model to MPEC...
...converted
NOTE: initial MIP solve with only storage competitive to get feasible solution
Solving...

Welcome to IBM(R) ILOG(R) CPLEX(R) Interactive Optimizer 12.9.0.0
  with Simplex, Mixed Integer & Barrier Optimizers
5725-A06 5725-A29 5724-Y48 5724-Y49 5724-Y54 5724-Y55 5655-Y21
Copyright IBM Corp. 1988, 2019.  All Rights Reserved.

Type 'help' for a list of available commands.
Type 'help' followed by a command name for more
information on commands.

CPLEX> Logfile 'cplex.log' closed.
Logfile 'C:\Users\llavin\Desktop\test826\logs\tmp9hu84yuj.cplex.log' open.
CPLEX> New value for parallel optimization mode: -1
CPLEX> New value for emphasis for MIP optimization: 1
CPLEX> New value for mixed integer optimality gap tolerance: 0.01
CPLEX> New value for integrality tolerance: 1e-12
CPLEX> New value for deterministic time limit in ticks: 75000
CPLEX> Problem 'C:\Users\llavin\Desktop\test826\logs\tmpyny8gss9.pyomo.lp' read.
Read time = 0.24 sec. (13.92 ticks)
CPLEX> Problem name         : C:\Users\llavin\Desktop\test826\logs\tmpyny8gss9.pyomo.lp
Objective sense      : Maximize
Variables            :   53809  [Nneg: 1,  Box: 22004,  Free: 4464,
                                 Binary: 27340]
Objective nonzeros   :    8965
Linear constraints   :  123253  [Less: 41346,  Greater: 59096,  Equal: 22811]
  Nonzeros           :  293274
  RHS nonzeros       :   67476

Variables            : Min LB: -5000.000        Max UB: 1000000.       
Objective nonzeros   : Min   : 0.4250000        Max   : 828.8500       
Linear constraints   :
  Nonzeros           : Min   : 0.4250000        Max   : 1000000.       
  RHS nonzeros       : Min   : 0.4250000        Max   : 1000000.       
CPLEX> CPXPARAM_Parallel                                -1
CPXPARAM_Emphasis_MIP                            1
CPXPARAM_DetTimeLimit                            75000
CPXPARAM_MIP_Tolerances_MIPGap                   0.01
CPXPARAM_MIP_Tolerances_Integrality              9.9999999999999998e-13
Tried aggregator 4 times.
MIP Presolve eliminated 88739 rows and 18985 columns.
MIP Presolve added 3388 rows and 0 columns.
MIP Presolve modified 24874 coefficients.
Aggregator did 13012 substitutions.
Reduced MIP has 24890 rows, 21246 columns, and 71046 nonzeros.
Reduced MIP has 8389 binaries, 0 generals, 0 SOSs, and 0 indicators.
Presolve time = 0.33 sec. (193.63 ticks)
Probing fixed 385 vars, tightened 4353 bounds.
Probing time = 0.09 sec. (19.08 ticks)
Tried aggregator 2 times.
MIP Presolve eliminated 876 rows and 774 columns.
MIP Presolve modified 3022 coefficients.
Aggregator did 37 substitutions.
Reduced MIP has 23977 rows, 20435 columns, and 68399 nonzeros.
Reduced MIP has 8003 binaries, 0 generals, 0 SOSs, and 0 indicators.
Presolve time = 0.11 sec. (89.32 ticks)
Probing fixed 1 vars, tightened 332 bounds.
Probing time = 0.14 sec. (24.54 ticks)
Clique table members: 44411.
MIP emphasis: integer feasibility.
MIP search method: dynamic search.
Parallel mode: opportunistic, using up to 32 threads.
Root relaxation solution time = 0.41 sec. (619.75 ticks)

        Nodes                                         Cuts/
   Node  Left     Objective  IInf  Best Integer    Best Bound    ItCnt     Gap

      0     0     6632.9578   102                   6632.9578     5268         
*     0+    0                         6332.9800     6632.9578             4.74%
      0     0     6632.9578     3     6332.9800       Cuts: 5     5284    4.74%
      0     0     6632.9578     2     6332.9800      Cuts: 11     5287    4.74%
*     0+    0                         6493.0236     6632.9578             2.16%

Repeating presolve.
Tried aggregator 3 times.
MIP Presolve eliminated 10970 rows and 8314 columns.
MIP Presolve modified 17853 coefficients.
Aggregator did 196 substitutions.
Reduced MIP has 12811 rows, 11925 columns, and 38327 nonzeros.
Reduced MIP has 4399 binaries, 0 generals, 0 SOSs, and 0 indicators.
Presolve time = 0.09 sec. (60.82 ticks)
Probing fixed 580 vars, tightened 29009 bounds.
Probing time = 0.14 sec. (70.71 ticks)
Cover probing fixed 14 vars, tightened 1940 bounds.
Tried aggregator 4 times.
MIP Presolve eliminated 5745 rows and 5593 columns.
MIP Presolve modified 2848 coefficients.
Aggregator did 116 substitutions.
Reduced MIP has 6950 rows, 6216 columns, and 22328 nonzeros.
Reduced MIP has 2234 binaries, 0 generals, 0 SOSs, and 0 indicators.
Presolve time = 0.03 sec. (31.95 ticks)
Probing fixed 35 vars, tightened 2782 bounds.
Probing time = 0.05 sec. (16.72 ticks)
Cover probing fixed 8 vars, tightened 103 bounds.
Tried aggregator 3 times.
MIP Presolve eliminated 151 rows and 136 columns.
MIP Presolve modified 1446 coefficients.
Aggregator did 10 substitutions.
Reduced MIP has 6789 rows, 6070 columns, and 21901 nonzeros.
Reduced MIP has 2176 binaries, 0 generals, 0 SOSs, and 0 indicators.
Presolve time = 0.03 sec. (15.20 ticks)
Probing fixed 8 vars, tightened 1752 bounds.
Probing time = 0.03 sec. (10.95 ticks)
Tried aggregator 2 times.
MIP Presolve eliminated 31 rows and 27 columns.
MIP Presolve modified 1336 coefficients.
Aggregator did 3 substitutions.
Reduced MIP has 6755 rows, 6040 columns, and 21786 nonzeros.
Reduced MIP has 2168 binaries, 0 generals, 0 SOSs, and 0 indicators.
Presolve time = 0.03 sec. (18.37 ticks)
Represolve time = 0.56 sec. (267.59 ticks)
Probing fixed 9 vars, tightened 1674 bounds.
Probing time = 0.03 sec. (6.97 ticks)
Clique table members: 2847.
MIP emphasis: integer feasibility.
MIP search method: dynamic search.
Parallel mode: opportunistic, using up to 32 threads.
Root relaxation solution time = 0.11 sec. (107.83 ticks)

        Nodes                                         Cuts/
   Node  Left     Objective  IInf  Best Integer    Best Bound    ItCnt     Gap

*     0+    0                         6493.0236     6632.9578             2.16%
      0     0     6632.9578    21     6493.0236     6632.9578     7004    2.16%
      0     0     6605.6913     2     6493.0236       Cuts: 8     7017    1.74%
      0     0     6574.2810     4     6493.0236      Cuts: 10     7026    1.25%
      0     0     6567.0173     4     6493.0236      Cuts: 10     7028    1.14%
      0     2     6564.5306     3     6493.0236     6567.0173     7029    1.14%
Elapsed time = 4.17 sec. (2496.08 ticks, tree = 0.02 MB, solutions = 3)
*     4     3      integral     0     6563.8742     6563.8742     7043    0.00%

Implied bound cuts applied:  3
Flow cuts applied:  2
Mixed integer rounding cuts applied:  2
Gomory fractional cuts applied:  2

Root node processing (before b&c):
  Real time             =    3.91 sec. (2495.14 ticks)
Parallel b&c, 32 threads:
  Real time             =    0.34 sec. (20.02 ticks)
  Sync time (average)   =    0.03 sec.
  Wait time (average)   =    0.00 sec.
                          ------------
Total (root+branch&cut) =    4.25 sec. (2515.16 ticks)

Solution pool: 4 solutions saved.

MIP - Integer optimal solution:  Objective =  6.5638741642e+03
Solution time =    4.26 sec.  Iterations = 7045  Nodes = 5
Deterministic time = 2515.32 ticks  (589.76 ticks/sec)

CPLEX> Incumbent solution written to file 'C:\Users\llavin\Desktop\test826\logs\tmpqtk36lhi.cplex.sol'.
CPLEX> NOTE: no warmstart specified for MIP iteration, default behavior is true
NOTE: resolving with all competitive generators using storage-only solution to warmstart
Solving...

Welcome to IBM(R) ILOG(R) CPLEX(R) Interactive Optimizer 12.9.0.0
  with Simplex, Mixed Integer & Barrier Optimizers
5725-A06 5725-A29 5724-Y48 5724-Y49 5724-Y54 5724-Y55 5655-Y21
Copyright IBM Corp. 1988, 2019.  All Rights Reserved.

Type 'help' for a list of available commands.
Type 'help' followed by a command name for more
information on commands.

CPLEX> Logfile 'cplex.log' closed.
Logfile 'C:\Users\llavin\Desktop\test826\logs\tmp41w4z1wl.cplex.log' open.
CPLEX> New value for parallel optimization mode: -1
CPLEX> New value for emphasis for MIP optimization: 1
CPLEX> New value for mixed integer optimality gap tolerance: 0.01
CPLEX> New value for integrality tolerance: 1e-12
CPLEX> New value for deterministic time limit in ticks: 75000
CPLEX> Problem 'C:\Users\llavin\Desktop\test826\logs\tmp01ki5d3v.pyomo.lp' read.
Read time = 0.24 sec. (13.94 ticks)
CPLEX> MIP start file 'C:\Users\llavin\Desktop\test826\logs\tmp_ji6xhpt.cplex.mst' read.
CPLEX> Problem name         : C:\Users\llavin\Desktop\test826\logs\tmp01ki5d3v.pyomo.lp
Objective sense      : Maximize
Variables            :   54529  [Nneg: 1,  Box: 22724,  Free: 4464,
                                 Binary: 27340]
Objective nonzeros   :    9661
Linear constraints   :  123253  [Less: 41346,  Greater: 59096,  Equal: 22811]
  Nonzeros           :  293274
  RHS nonzeros       :   67476

Variables            : Min LB: -5000.000        Max UB: 1000000.       
Objective nonzeros   : Min   : 0.4250000        Max   : 781.7417       
Linear constraints   :
  Nonzeros           : Min   : 0.4250000        Max   : 1000000.       
  RHS nonzeros       : Min   : 0.4250000        Max   : 1000000.       
CPLEX> CPXPARAM_Parallel                                -1
CPXPARAM_Emphasis_MIP                            1
CPXPARAM_DetTimeLimit                            75000
CPXPARAM_MIP_Tolerances_MIPGap                   0.01
CPXPARAM_MIP_Tolerances_Integrality              9.9999999999999998e-13
Warning:  No solution found from 1 MIP starts.
Retaining values of one MIP start for possible repair.
Tried aggregator 4 times.
MIP Presolve eliminated 88739 rows and 19705 columns.
MIP Presolve added 3388 rows and 0 columns.
MIP Presolve modified 24874 coefficients.
Aggregator did 13012 substitutions.
Reduced MIP has 24890 rows, 21246 columns, and 71046 nonzeros.
Reduced MIP has 8389 binaries, 0 generals, 0 SOSs, and 0 indicators.
Presolve time = 0.31 sec. (194.04 ticks)
Probing fixed 385 vars, tightened 4353 bounds.
Probing time = 0.06 sec. (19.08 ticks)
Tried aggregator 2 times.
MIP Presolve eliminated 876 rows and 774 columns.
MIP Presolve modified 3022 coefficients.
Aggregator did 37 substitutions.
Reduced MIP has 23977 rows, 20435 columns, and 68399 nonzeros.
Reduced MIP has 8003 binaries, 0 generals, 0 SOSs, and 0 indicators.
Presolve time = 0.11 sec. (89.32 ticks)
Probing fixed 1 vars, tightened 332 bounds.
Probing time = 0.14 sec. (24.54 ticks)
Clique table members: 44411.
MIP emphasis: integer feasibility.
MIP search method: dynamic search.
Parallel mode: opportunistic, using up to 32 threads.
Root relaxation solution time = 0.44 sec. (627.18 ticks)

        Nodes                                         Cuts/
   Node  Left     Objective  IInf  Best Integer    Best Bound    ItCnt     Gap

      0     0   162645.5582   292                 162645.5582     5712         
      0     0   160112.1230   208                   Cuts: 220     5936         
      0     0   159199.5058   207                    Cuts: 83     6066         
      0     0   158932.2606   207                    Cuts: 46     6120         
Repair heuristic found nothing.
      0    13   156977.8907   196                    Cuts: 13     6333         
Elapsed time = 4.51 sec. (1937.15 ticks, tree = 0.02 MB, solutions = 0)
    605   216   150688.4000   155                 156651.0716     9986         
   1059   764    infeasible                       156651.0716    19366         
   1672  1142    83292.4016   100                 156651.0716    25827         
   2270  1340    71133.2867    96                 156651.0716    35693         
   2938  1910    33269.8794    88                 156651.0716    57893         
   3641  2321    27050.2312    56                 156651.0716    67044         
   4306  2708    infeasible                       156651.0716    76192         
   4997  3105    11074.6625    59                 156651.0716    89135         
   5655  3536    38199.5437    68                 156651.0716   101815         
   7951  5136    infeasible                       156651.0716   157905         
Elapsed time = 21.38 sec. (5041.88 ticks, tree = 43.96 MB, solutions = 0)
  10125  6656    36305.8608    85                 156356.6158   234242         
  12491  8641    36009.4372    67                 155933.6051   342609         
  14972  9330    33184.5281    74                 154742.9915   369501         
  17656 10752    17936.9949    88                 154742.9915   421187         
  20015 12487   -74598.0352    85                 154742.9915   492083         
  22575 13900    34511.3083    89                 154742.9915   559166         
  24930 15411   -31386.6812    99                 154009.1097   631709         
  27266 16788    33437.7440    68                 154009.1097   694953         
  29788 18104    44276.9218    82                 151735.7400   748793         
  32171 20747    26663.0430   105                 151698.0674   871649         
Elapsed time = 73.26 sec. (14585.26 ticks, tree = 233.81 MB, solutions = 0)
  34422 22633     2996.8910   100                 151698.0674   968862         
  36687 22873    infeasible                       144225.3504   980013         
  39076 24226    infeasible                       118567.6556  1059039         
  41315 26445    infeasible                       115620.9267  1173060         
  43505 27032   -66995.0373   123                 115620.9267  1198067         
  45794 28210   -11944.4788   108                 109271.1568  1258104         
  48188 31034    15285.8212    76                 109271.1568  1379243         
  50606 30977 -1886603.7277   157                 109271.1568  1378151         
  53099 34554 -1068549.2032    74                 109271.1568  1536659         
  55427 34482    50633.6071    99                 109271.1568  1533985         
Elapsed time = 121.05 sec. (24123.89 ticks, tree = 394.84 MB, solutions = 0)
  57787 37141    16989.5684    87                 109271.1568  1644713         
  60352 38889     6043.5292    67                 109271.1568  1718515         
  63126 40124    -6844.3500    41                 109271.1568  1767999         
  65673 42079    48453.4954    82                 109271.1568  1865154         
  68076 42173    37673.7514    51                 109271.1568  1870706         
  70343 45099    41667.4480    78                 109271.1568  2038240         
  72616 46898    16125.9942    89                 109271.1568  2152909         
  74888 47105    43360.8202   102                 109271.1568  2164907         
  77295 48923    infeasible                       109271.1568  2281379         
  79851 49849    infeasible                       109271.1568  2345919         
Elapsed time = 169.17 sec. (33663.47 ticks, tree = 514.03 MB, solutions = 0)
  82441 51951    infeasible                       109271.1568  2491313         
  84842 52847    -5977.1272    59                  89896.9622  2552307         
  87182 53583    18687.4705    98                  89896.9622  2603683         
  89541 55354    infeasible                        89896.9622  2722353         
  91954 59170    infeasible                        89896.9622  2957127         
  94307 60808   -60247.0360    99                  89896.9622  3063444         
  96772 59581    25042.1502    74                  89896.9622  2984589         
  99419 61585    34779.4927    62                  88875.8374  3103694         
 102033 61833     6361.0772    78                  88875.8374  3127709         
 104432 64912     7563.4590    74                  88875.8374  3336555         
Elapsed time = 220.22 sec. (43204.38 ticks, tree = 630.12 MB, solutions = 0)
 106739 65153    infeasible                        88875.8374  3358998         
 109120 66726    infeasible                        88875.8374  3470465         
 111545 67144 -1292926.3530   107                  88875.8374  3503630         
 113944 69566    28841.0227    47                  88875.8374  3680887         
 116400 69116  -148087.4612   107                  88875.8374  3651795         
 118904 72599    14526.3398    45                  88875.8374  3879370         
 121706 73048    infeasible                        88875.8374  3905929         
 124349 74369    24461.7834    98                  88875.8374  3983847         
 126849 76841    28723.2091    82                  88875.8374  4155879         
 129239 75935    29773.3781    96                  88875.8374  4099574         
Elapsed time = 275.47 sec. (52744.21 ticks, tree = 717.43 MB, solutions = 0)
 131717 78159    16447.0641    73                  88875.8374  4257362         
 134055 80833  -129413.4120    83                  88875.8374  4427268         
 136593 82574   -59503.1150    53                  88875.8374  4547794         
 139045 83557   -16272.4282    66                  88875.8374  4599426         
 141442 83211    23296.4140    48                  88875.8374  4585247         
 143894 83961    infeasible                        88875.8374  4623560         
 146377 87268  -344608.0884    61                  88875.8374  4787232         
 148868 88499    24507.6604    94                  88875.8374  4834604         
 151323 90517     4390.9370   106                  88875.8374  4903047         
 153707 90063   -10911.9574    52                  88875.8374  4892137         
Elapsed time = 494.28 sec. (62284.23 ticks, tree = 1231.67 MB, solutions = 0)
 156027 91231    infeasible                        88875.8374  4932389         
 158263 93652    25617.8935    83                  88875.8374  5017122         
 160641 93753 -1372218.3207   132                  88875.8374  5023202         
 162872 95526    20804.8104    75                  88875.8374  5118005         
 164842 97812     6102.2098    64                  88875.8374  5239879         
 165830 98242    -4467.9311    81                  88875.8374  5270040         
 166052 101742    67403.0553    78                  79721.6706  5512404         
 167591   862    37325.9988    23                  79471.5759  5533626         
 170446  2542    28874.2246    45                  78110.7202  5585147         
 173289  4076    22993.6915    53                  78110.7202  5638666         
Elapsed time = 529.31 sec. (73308.68 ticks, tree = 40.35 MB, solutions = 0)
 176000  5780    infeasible                        78110.7202  5712986         

Cover cuts applied:  86
Implied bound cuts applied:  9
Flow cuts applied:  165
Mixed integer rounding cuts applied:  18
Gomory fractional cuts applied:  20

Root node processing (before b&c):
  Real time             =    2.78 sec. (1884.62 ticks)
Parallel b&c, 32 threads:
  Real time             =  532.61 sec. (73132.88 ticks)
  Sync time (average)   =    9.03 sec.
  Wait time (average)   =    0.24 sec.
                          ------------
Total (root+branch&cut) =  535.39 sec. (75017.49 ticks)


MIP - Deterministic time limit exceeded, no integer solution.
Current MIP best bound =  7.8110720222e+04 (gap is infinite)
Solution time =  535.39 sec.  Iterations = 5782934  Nodes = 178032 (7574)
Deterministic time = 75017.65 ticks  (140.12 ticks/sec)

CPLEX> CPLEX Error  1217: No solution exists.
No file written.
CPLEX> gap is infinite, so writing 0
Exporting results... 
